NAME: ACTUAL_TOURS/amz1312
TYPE: TOUR
COMMENT: RouteID_8a64113c-d4d7-4047-81ba-8810836a8522
DIMENSION: 141
TOUR_SECTION
91
7
131
119
71
39
112
21
135
61
48
22
117
65
18
94
95
80
108
36
82
60
11
28
75
42
99
90
9
120
55
130
34
54
8
44
62
126
129
13
73
87
138
2
85
84
1
24
30
40
124
70
69
26
102
133
52
78
29
86
23
17
83
66
106
43
107
132
101
35
77
79
37
113
27
104
81
41
125
3
15
92
47
14
109
93
56
140
53
127
51
33
76
10
115
105
123
118
31
96
100
141
97
111
20
139
128
16
63
50
46
121
122
45
19
64
134
25
72
68
49
6
114
5
116
136
98
57
88
59
89
110
4
67
12
103
58
38
32
137
74
-1
EOF
